Gurobi Optimizer version 9.1.2 build v9.1.2rc0 (linux64)
Thread count: 36 physical cores, 72 logical processors, using up to 32 threads
Optimize a model with 12 rows, 57 columns and 590 nonzeros
Model fingerprint: 0xf32eec78
Model has 47 quadratic constraints
Coefficient statistics:
  Matrix range     [2e-05, 3e+00]
  QMatrix range    [1e+00, 1e+00]
  QLMatrix range   [1e+00, 1e+00]
  Objective range  [8e-03, 7e-01]
  Bounds range     [1e+00, 1e+00]
  RHS range        [1e+00, 1e+00]
Presolve removed 9 rows and 0 columns

Continuous model is non-convex -- solving as a MIP.

Presolve removed 9 rows and 0 columns
Presolve time: 0.00s
Presolved: 189 rows, 57 columns, 443 nonzeros
Presolved model has 47 bilinear constraint(s)
Variable types: 57 continuous, 0 integer (0 binary)

Root relaxation: objective -1.743721e+00, 44 iterations, 0.00 seconds

    Nodes    |    Current Node    |     Objective Bounds      |     Work
 Expl Unexpl |  Obj  Depth IntInf | Incumbent    BestBd   Gap | It/Node Time

     0     0   -1.74372    0   38          -   -1.74372      -     -    0s
H    0     0                       0.6147548   -1.74372   384%     -    0s
     0     0   -1.64739    0    1    0.61475   -1.64739   368%     -    0s
H    0     0                      -1.6450460   -1.64739  0.14%     -    0s
     0     0     cutoff    0        -1.64505   -1.64505  0.00%     -    0s

Cutting planes:
  RLT: 25
  BQP: 3

Explored 1 nodes (76 simplex iterations) in 0.01 seconds
Thread count was 32 (of 72 available processors)

Solution count 2: -1.64505 0.614755 
No other solutions better than -1.64505

Optimal solution found (tolerance 1.00e-04)
Best objective -1.645045978473e+00, best bound -1.645045978473e+00, gap 0.0000%

User-callback calls 78, time in user-callback 0.00 sec
Gurobi Optimizer version 9.1.2 build v9.1.2rc0 (linux64)
Thread count: 36 physical cores, 72 logical processors, using up to 32 threads
Optimize a model with 60 rows, 312 columns and 16100 nonzeros
Model fingerprint: 0x6f35deb0
Model has 262 quadratic constraints
Coefficient statistics:
  Matrix range     [4e-07, 7e+00]
  QMatrix range    [1e+00, 1e+00]
  QLMatrix range   [1e+00, 1e+00]
  Objective range  [4e-03, 1e+00]
  Bounds range     [1e+00, 1e+00]
  RHS range        [1e+00, 1e+00]
Presolve removed 15 rows and 0 columns

Continuous model is non-convex -- solving as a MIP.

Presolve removed 15 rows and 0 columns
Presolve time: 0.01s
Presolved: 1081 rows, 312 columns, 13447 nonzeros
Presolved model has 262 bilinear constraint(s)
Variable types: 312 continuous, 0 integer (0 binary)

Root relaxation: objective -2.130712e+01, 313 iterations, 0.02 seconds

    Nodes    |    Current Node    |     Objective Bounds      |     Work
 Expl Unexpl |  Obj  Depth IntInf | Incumbent    BestBd   Gap | It/Node Time

     0     0  -21.30712    0  164          -  -21.30712      -     -    0s
     0     0  -20.49034    0   65          -  -20.49034      -     -    0s
     0     0  -20.44543    0   58          -  -20.44543      -     -    0s
     0     0  -20.40927    0   66          -  -20.40927      -     -    0s
     0     0  -20.40886    0   66          -  -20.40886      -     -    0s
     0     0  -20.39545    0   69          -  -20.39545      -     -    0s
     0     0  -20.39505    0   69          -  -20.39505      -     -    0s
     0     0  -20.39287    0   69          -  -20.39287      -     -    0s
     0     0  -20.39275    0   66          -  -20.39275      -     -    0s
     0     0  -20.39240    0   66          -  -20.39240      -     -    0s
     0     2  -20.39240    0   66          -  -20.39240      -     -    0s
* 2627  1972              55     -19.6047017  -19.92447  1.63%  38.9    1s
* 3413  1942              74     -19.6706819  -19.88881  1.11%  39.2    2s
* 3416  1942              76     -19.6707216  -19.88881  1.11%  39.2    2s
* 3417  1942              76     -19.6707238  -19.88881  1.11%  39.2    2s
* 6160   402              57     -19.6707604  -19.88881  1.11%  40.0    3s
* 6519   567              53     -19.6707610  -19.88881  1.11%  38.9    3s
* 6520   567              53     -19.6707778  -19.88881  1.11%  38.9    3s
* 6583   567              50     -19.6707811  -19.88881  1.11%  38.7    3s
* 6601   667              65     -19.6831486  -19.88881  1.04%  38.7    3s
* 6977   862              60     -19.6911483  -19.88881  1.00%  37.7    3s
* 7173   958              59     -19.6911489  -19.88617  0.99%  37.2    3s
* 7183   958              56     -19.6921202  -19.88617  0.99%  37.2    3s
* 7724  1223              69     -19.6987973  -19.87183  0.88%  35.9    4s
* 7958  1290              71     -19.6988022  -19.85299  0.78%  35.4    4s
* 7959  1290              71     -19.6988024  -19.85299  0.78%  35.4    4s
* 7964  1290              71     -19.6990950  -19.85299  0.78%  35.4    4s
* 7965  1290              71     -19.6990993  -19.85299  0.78%  35.4    4s
* 7967  1290              71     -19.6991027  -19.85299  0.78%  35.3    4s
* 7968  1290              71     -19.6991029  -19.85299  0.78%  35.3    4s
* 8098  1446              71     -19.6993150  -19.85299  0.78%  35.1    4s
* 8267  1446              76     -19.6997507  -19.85299  0.78%  34.7    4s
* 8269  1446              74     -19.6998096  -19.85299  0.78%  34.7    4s
* 8507  1616              74     -19.6999010  -19.85299  0.78%  34.2    4s
* 8613  1783              57     -19.6999290  -19.85030  0.76%  34.1    4s
* 8614  1783              57     -19.6999308  -19.85030  0.76%  34.1    4s
* 8616  1783              57     -19.6999483  -19.85030  0.76%  34.0    4s
* 8908  1985              62     -19.7369931  -19.85030  0.57%  33.5    4s
* 8909  1985              62     -19.7369991  -19.85030  0.57%  33.5    4s
* 9303  1707              70     -19.7400537  -19.80500  0.33%  32.8    4s
*11442  1512              56     -19.7400598  -19.77265  0.17%  29.8    4s
*11443  1512              55     -19.7400625  -19.77265  0.17%  29.7    4s
*11525  1512              60     -19.7401565  -19.77265  0.16%  29.6    4s
*11913  1407              60     -19.7401567  -19.77265  0.16%  29.1    4s
*11943  1407              60     -19.7401581  -19.77265  0.16%  29.1    4s
*11947  1407              61     -19.7401602  -19.77265  0.16%  29.1    4s
*11948  1407              60     -19.7401602  -19.77265  0.16%  29.1    4s
*12000  1407              61     -19.7401719  -19.77265  0.16%  28.9    4s
 12098  1442  -19.74123   37   23  -19.74017  -19.76416  0.12%  28.8    5s
*12549  1455              61     -19.7401725  -19.74717  0.04%  28.2    5s
*12711  1455              56     -19.7402443  -19.74551  0.03%  27.9    5s
*12901  1455              69     -19.7402530  -19.74551  0.03%  27.6    5s
*12988  1455              59     -19.7403486  -19.74551  0.03%  27.5    5s
*13574  1251              63     -19.7403789  -19.74491  0.02%  26.5    5s
*13575  1251              63     -19.7403805  -19.74491  0.02%  26.5    5s
*13606  1251              60     -19.7404420  -19.74491  0.02%  26.4    5s
*13607  1251              60     -19.7404474  -19.74491  0.02%  26.4    5s
*13609  1251              60     -19.7404544  -19.74491  0.02%  26.4    5s
*13921  1047              60     -19.7404547  -19.74305  0.01%  26.0    5s
*14093  1047              59     -19.7404740  -19.74170  0.01%  25.7    5s
*14094  1047              59     -19.7404742  -19.74170  0.01%  25.7    5s
*14109  1047              64     -19.7404857  -19.74170  0.01%  25.7    5s
*14117  1047              65     -19.7404863  -19.74170  0.01%  25.7    5s
*14136  1047              62     -19.7405278  -19.74170  0.01%  25.7    5s
*14142  1047              64     -19.7405285  -19.74170  0.01%  25.6    5s
*14144  1047              65     -19.7405285  -19.74170  0.01%  25.6    5s

Explored 14558 nodes (364581 simplex iterations) in 5.24 seconds
Thread count was 32 (of 72 available processors)

Solution count 10: -19.7405 -19.7405 -19.7405 ... -19.7404

Optimal solution found (tolerance 1.00e-04)
Best objective -1.974052854236e+01, best bound -1.974170187901e+01, gap 0.0059%

User-callback calls 29996, time in user-callback 0.01 sec



objective value: -19.740528542357445
objective bound: -19.741701879010687
x_opt: [0.999621927479455, 1.0, 0.0, 0.36619451734082753, 0.0, 0.0, 1.0, 0.0, 0.0, -4.7585072063114885e-7, 1.0, 0.0, 1.0, 1.0, 0.12133638474646671, 1.0, 0.0, 1.0, 0.0, 0.0, 1.0, 0.6914711923739894, 0.0, 0.8248036749871843, 0.0, 0.8278297912900645, 0.0, 1.0, 0.0, 0.0, 0.9925962585876055, 0.8833677430409778, 0.0, 0.3688046181327545, 1.0, 1.0, 0.05886777746697464, 1.0, 0.0, 0.8102311027854274, 1.0, 0.0, 1.0, 0.0, 0.0, 0.09281199828756549, 0.9228800321947764, 0.0, 0.9997664812475696, 0.17288980069747853]
GUROBI solution time: 5.244988918304443




